127372.0
1486
0 3 6 7 8 12 18 19 24 25 26 27 32 36 37 39 47 48 52 56 57 61 64 69 70 75 77 80 82 83 84 89 93 94 97 98 99 100 101 104 105 107 109 113 114 115 116 120 125 126 130 131 137 139 140 142 143 160 163 165 166 167 169 171 173 182 185 186 188 190 192 194 195 196 197 198 